experiment/data/lkh-res/Vrp-Set-X-n266/Vrp-Set-X-n266-lkh/0.lkh1.vrp
NAME : 0
COMMENT : CVRP Instance
TYPE : CVRP
DIMENSION : 266
EDGE_WEIGHT_TYPE : EUC_2D
CAPACITY : 35
NODE_COORD_SECTION
1	14300	1200
2	20600	90700
3	89500	85500
4	64000	97000
5	86500	71600
6	99300	35600
7	61800	96600
8	96300	53900
9	5000	97900
10	24100	99800
11	3200	20600
12	28800	92600
13	29900	50700
14	33600	18000
15	58900	72600
16	66500	48800
17	3600	52100
18	11200	89500
19	81400	44200
20	84300	47400
21	1700	25800
22	36000	27300
23	81400	53700
24	77500	52400
25	82500	47100
26	32100	8700
27	77300	95800
28	11900	16600
29	36800	92800
30	19300	25000
31	45200	91900
32	73600	32200
33	38600	91100
34	62400	31300
35	69400	39800
36	18600	80300
37	94800	72100
38	21600	97300
39	91500	64100
40	23800	81000
41	94600	17200
42	2300	56100
43	61300	65700
44	35900	43400
45	60400	9600
46	5600	55400
47	86200	72300
48	22200	16100
49	97400	83800
50	77500	6700
51	81500	88000
52	20400	36200
53	43500	76000
54	59300	35800
55	20300	43500
56	88200	80300
57	19400	73900
58	38000	32300
59	83600	46100
60	53700	13600
61	78900	66900
62	95600	100000
63	9800	29500
64	65600	41000
65	58000	95900
66	59400	6400
67	45900	4300
68	42500	55900
69	26200	3100
70	52200	33900
71	96000	7400
72	23700	91000
73	35300	82800
74	42000	28100
75	72100	52400
76	18500	67900
77	70300	30300
78	92300	49100
79	44400	79200
80	56700	47600
81	98700	93000
82	11300	21000
83	90700	4500
84	38300	79900
85	20900	19200
86	3400	82000
87	46400	71700
88	83700	53600
89	20200	9400
90	17700	34100
91	55100	300
92	83500	46700
93	12800	65500
94	98800	93700
95	17900	36900
96	48700	76500
97	97500	40600
98	36500	41100
99	44000	4100
100	60700	48700
101	5700	89800
102	16100	70700
103	0	51700
104	21000	8800
105	52400	19500
106	68200	40900
107	60800	5500
108	1600	90900
109	84600	37900
110	18300	24200
111	58600	18200
112	94800	68200
113	32400	4400
114	38000	57300
115	33900	18800
116	62900	3200
117	58900	80500
118	93400	90700
119	84800	63300
120	89000	97300
121	9800	78700
122	96400	39100
123	17100	83700
124	26100	40900
125	63700	13300
126	54100	31300
127	94600	38800
128	47900	63600
129	81800	50300
130	18800	60200
131	88700	64300
132	98100	83900
133	58500	57000
134	38300	32500
135	28800	21900
136	40700	59600
137	70700	52500
138	5600	19300
139	52300	50200
140	12000	16300
141	35200	59700
142	30400	15800
143	44100	58700
144	10400	29500
145	6600	15000
146	42400	60900
147	18400	39500
148	46400	15300
149	3900	22400
150	27700	4300
151	38000	49600
152	62000	62300
153	36700	30000
154	34700	40100
155	43500	23500
156	24200	54300
157	32100	57200
158	62500	36100
159	65100	35400
160	42600	35900
161	67300	53100
162	45800	37500
163	37900	32900
164	30900	32900
165	34800	12600
166	16600	4600
167	7500	27100
168	85900	37900
169	53100	46100
170	74700	57800
171	25700	9200
172	7800	28800
173	25700	38300
174	43700	36000
175	34300	27900
176	66800	38300
177	35400	64700
178	48200	60300
179	45800	52200
180	68600	49900
181	29800	39200
182	34700	26400
183	40700	37900
184	32100	28000
185	69100	40200
186	5900	17400
187	11100	26600
188	59200	42400
189	66700	38400
190	10800	33900
191	31200	48900
192	38200	22700
193	38400	63900
194	8400	31100
195	37800	5800
196	8800	6200
197	50500	61200
198	19800	13200
199	7600	11200
200	59100	50200
201	68900	52200
202	52600	49500
203	13800	6300
204	51100	63800
205	32700	29300
206	29200	53800
207	17100	14200
208	69600	50600
209	23400	71800
210	43000	24700
211	72700	57100
212	61400	29500
213	56600	54300
214	80300	53700
215	34000	59800
216	51100	46900
217	76500	57100
218	27000	25100
219	36800	53300
220	32700	16400
221	69600	57500
222	21800	56200
223	44100	62200
224	12700	12100
225	76900	44300
226	82100	50000
227	34800	57400
228	31000	8700
229	77000	52700
230	43100	53900
231	23200	25600
232	41000	28100
233	44900	50700
234	14700	22300
235	35200	17200
236	41000	33900
237	15100	3600
238	20800	11600
239	44000	5900
240	25600	19500
241	35600	34300
242	42100	33300
243	29400	46000
244	75200	28900
245	72800	55400
246	66000	42200
247	48200	17300
248	85700	65500
249	41500	55100
250	22800	31800
251	48600	49100
252	31600	62000
253	60700	50500
254	63400	42600
255	33100	12800
256	44300	61300
257	32200	62000
258	45900	68100
259	36400	27800
260	39500	49400
261	45500	61000
262	13400	14900
263	7900	20800
264	19300	20300
265	53900	49300
266	38100	43500
DEMAND_SECTION
1	0
2	5
3	5
4	5
5	5
6	6
7	10
8	10
9	10
10	9
11	9
12	5
13	9
14	5
15	6
16	7
17	6
18	10
19	6
20	5
21	10
22	6
23	10
24	7
25	6
26	9
27	5
28	5
29	8
30	7
31	9
32	6
33	10
34	8
35	9
36	7
37	9
38	5
39	9
40	8
41	10
42	8
43	10
44	10
45	8
46	6
47	7
48	9
49	8
50	8
51	9
52	10
53	5
54	10
55	5
56	6
57	5
58	7
59	10
60	8
61	9
62	9
63	7
64	10
65	10
66	9
67	7
68	9
69	10
70	7
71	6
72	7
73	9
74	10
75	9
76	7
77	10
78	9
79	9
80	6
81	7
82	8
83	6
84	10
85	6
86	5
87	5
88	8
89	8
90	8
91	5
92	9
93	8
94	10
95	5
96	10
97	9
98	5
99	6
100	6
101	7
102	10
103	10
104	6
105	10
106	10
107	5
108	6
109	9
110	7
111	10
112	9
113	6
114	5
115	7
116	7
117	5
118	6
119	5
120	6
121	10
122	8
123	7
124	10
125	8
126	7
127	9
128	10
129	7
130	7
131	10
132	8
133	10
134	8
135	6
136	10
137	7
138	9
139	5
140	10
141	8
142	9
143	7
144	7
145	7
146	6
147	8
148	10
149	7
150	6
151	5
152	7
153	7
154	7
155	7
156	7
157	8
158	5
159	7
160	10
161	8
162	5
163	5
164	5
165	7
166	9
167	10
168	8
169	9
170	7
171	8
172	7
173	8
174	7
175	9
176	10
177	10
178	7
179	7
180	9
181	10
182	9
183	10
184	10
185	6
186	7
187	7
188	9
189	8
190	7
191	7
192	9
193	6
194	6
195	5
196	10
197	8
198	5
199	5
200	9
201	6
202	6
203	10
204	8
205	6
206	6
207	7
208	7
209	5
210	8
211	8
212	6
213	8
214	6
215	10
216	8
217	9
218	7
219	6
220	7
221	5
222	5
223	7
224	7
225	10
226	10
227	8
228	10
229	6
230	7
231	9
232	9
233	10
234	7
235	9
236	9
237	7
238	9
239	6
240	7
241	7
242	10
243	6
244	9
245	5
246	8
247	10
248	6
249	6
250	10
251	6
252	8
253	5
254	9
255	9
256	9
257	8
258	7
259	10
260	5
261	5
262	6
263	5
264	6
265	6
266	10
DEPOT_SECTION
1
-1
EOF
