experiment/data/lkh-res/Vrp-Set-X-n266/Vrp-Set-X-n266-lkh/0.lkh1.log
PARAMETER_FILE = baseline_results/cvrp_lkh/Vrp-Set-X-n266/Vrp-Set-X-n266-lkh/0.lkh1.par
Reading PROBLEM_FILE: "baseline_results/cvrp_lkh/Vrp-Set-X-n266/Vrp-Set-X-n266-lkh/0.lkh1.vrp" ... done
ASCENT_CANDIDATES = 50
BACKBONE_TRIALS = 0
BACKTRACKING = NO
# BWTSP =
# CANDIDATE_FILE =
CANDIDATE_SET_TYPE = ALPHA
# DISTANCE =
DEPOT = 1
# EDGE_FILE =
EXCESS = 0.0037594
EXTERNAL_SALESMEN = 0
EXTRA_CANDIDATES = 0 
EXTRA_CANDIDATE_SET_TYPE = QUADRANT
GAIN23 = NO
GAIN_CRITERION = YES
INITIAL_PERIOD = 133
INITIAL_STEP_SIZE = 1
INITIAL_TOUR_ALGORITHM = WALK
# INITIAL_TOUR_FILE = 
INITIAL_TOUR_FRACTION = 1.000
# INPUT_TOUR_FILE = 
KICK_TYPE = 4
KICKS = 1
# MAX_BREADTH =
MAKESPAN = NO
MAX_CANDIDATES = 5 
MAX_SWAPS = 0
MAX_TRIALS = 10000
# MERGE_TOUR_FILE =
MOVE_TYPE = 5 SPECIAL
MTSP_MIN_SIZE = 1
MTSP_MAX_SIZE = 265
# MTSP_SOLUTION_FILE = 
# NONSEQUENTIAL_MOVE_TYPE = 5
# OPTIMUM =
OUTPUT_TOUR_FILE = baseline_results/cvrp_lkh/Vrp-Set-X-n266/Vrp-Set-X-n266-lkh/0.lkh1.tour
PATCHING_A = 1 
PATCHING_C = 0 
# PI_FILE = 
POPMUSIC_INITIAL_TOUR = NO
POPMUSIC_MAX_NEIGHBORS = 5
POPMUSIC_SAMPLE_SIZE = 10
POPMUSIC_SOLUTIONS = 50
POPMUSIC_TRIALS = 1
POPULATION_SIZE = 10
PRECISION = 100
PROBLEM_FILE = baseline_results/cvrp_lkh/Vrp-Set-X-n266/Vrp-Set-X-n266-lkh/0.lkh1.vrp
RECOMBINATION = IPT
RESTRICTED_SEARCH = YES
RUNS = 1
SALESMEN = 58
SCALE = 1
SEED = 1234
# SINTEF_SOLUTION_FILE = 
STOP_AT_OPTIMUM = YES
SUBGRADIENT = YES
# SUBPROBLEM_SIZE =
# SUBPROBLEM_TOUR_FILE = 
SUBSEQUENT_MOVE_TYPE = 5 SPECIAL
SUBSEQUENT_PATCHING = YES
# TIME_LIMIT =
# TOTAL_TIME_LIMIT =
# TOUR_FILE = 
TRACE_LEVEL = 1
VEHICLES = 58

Lower bound = 3295028.0, Ascent time = 0.11 sec.
Cand.min = 2, Cand.avg = 5.0, Cand.max = 5
Preprocessing time = 0.11 sec.
* 1: Cost = 0_8287536, Time = 0.35 sec. 
Writing OUTPUT_TOUR_FILE: "baseline_results/cvrp_lkh/Vrp-Set-X-n266/Vrp-Set-X-n266-lkh/0.lkh1.tour" ... done
* 2: Cost = 0_8223952, Time = 0.45 sec. 
Writing OUTPUT_TOUR_FILE: "baseline_results/cvrp_lkh/Vrp-Set-X-n266/Vrp-Set-X-n266-lkh/0.lkh1.tour" ... done
* 3: Cost = 0_8214488, Time = 0.49 sec. 
Writing OUTPUT_TOUR_FILE: "baseline_results/cvrp_lkh/Vrp-Set-X-n266/Vrp-Set-X-n266-lkh/0.lkh1.tour" ... done
* 7: Cost = 0_8202776, Time = 0.53 sec. 
Writing OUTPUT_TOUR_FILE: "baseline_results/cvrp_lkh/Vrp-Set-X-n266/Vrp-Set-X-n266-lkh/0.lkh1.tour" ... done
* 8: Cost = 0_8155591, Time = 0.57 sec. 
Writing OUTPUT_TOUR_FILE: "baseline_results/cvrp_lkh/Vrp-Set-X-n266/Vrp-Set-X-n266-lkh/0.lkh1.tour" ... done
* 9: Cost = 0_8132170, Time = 0.61 sec. 
Writing OUTPUT_TOUR_FILE: "baseline_results/cvrp_lkh/Vrp-Set-X-n266/Vrp-Set-X-n266-lkh/0.lkh1.tour" ... done
* 13: Cost = 0_8103385, Time = 0.93 sec. 
Writing OUTPUT_TOUR_FILE: "baseline_results/cvrp_lkh/Vrp-Set-X-n266/Vrp-Set-X-n266-lkh/0.lkh1.tour" ... done
* 17: Cost = 0_8103007, Time = 1.07 sec. 
Writing OUTPUT_TOUR_FILE: "baseline_results/cvrp_lkh/Vrp-Set-X-n266/Vrp-Set-X-n266-lkh/0.lkh1.tour" ... done
* 19: Cost = 0_8051066, Time = 1.16 sec. 
Writing OUTPUT_TOUR_FILE: "baseline_results/cvrp_lkh/Vrp-Set-X-n266/Vrp-Set-X-n266-lkh/0.lkh1.tour" ... done
* 21: Cost = 0_8050020, Time = 1.21 sec. 
Writing OUTPUT_TOUR_FILE: "baseline_results/cvrp_lkh/Vrp-Set-X-n266/Vrp-Set-X-n266-lkh/0.lkh1.tour" ... done
* 23: Cost = 0_8033488, Time = 1.27 sec. 
Writing OUTPUT_TOUR_FILE: "baseline_results/cvrp_lkh/Vrp-Set-X-n266/Vrp-Set-X-n266-lkh/0.lkh1.tour" ... done
* 24: Cost = 0_8006421, Time = 1.36 sec. 
Writing OUTPUT_TOUR_FILE: "baseline_results/cvrp_lkh/Vrp-Set-X-n266/Vrp-Set-X-n266-lkh/0.lkh1.tour" ... done
* 26: Cost = 0_8006098, Time = 1.44 sec. 
Writing OUTPUT_TOUR_FILE: "baseline_results/cvrp_lkh/Vrp-Set-X-n266/Vrp-Set-X-n266-lkh/0.lkh1.tour" ... done
* 28: Cost = 0_7980775, Time = 1.48 sec. 
Writing OUTPUT_TOUR_FILE: "baseline_results/cvrp_lkh/Vrp-Set-X-n266/Vrp-Set-X-n266-lkh/0.lkh1.tour" ... done
* 30: Cost = 0_7970716, Time = 1.58 sec. 
Writing OUTPUT_TOUR_FILE: "baseline_results/cvrp_lkh/Vrp-Set-X-n266/Vrp-Set-X-n266-lkh/0.lkh1.tour" ... done
* 31: Cost = 0_7964213, Time = 1.59 sec. 
Writing OUTPUT_TOUR_FILE: "baseline_results/cvrp_lkh/Vrp-Set-X-n266/Vrp-Set-X-n266-lkh/0.lkh1.tour" ... done
* 32: Cost = 0_7946662, Time = 1.64 sec. 
Writing OUTPUT_TOUR_FILE: "baseline_results/cvrp_lkh/Vrp-Set-X-n266/Vrp-Set-X-n266-lkh/0.lkh1.tour" ... done
* 34: Cost = 0_7946062, Time = 1.71 sec. 
Writing OUTPUT_TOUR_FILE: "baseline_results/cvrp_lkh/Vrp-Set-X-n266/Vrp-Set-X-n266-lkh/0.lkh1.tour" ... done
* 35: Cost = 0_7944989, Time = 1.76 sec. 
Writing OUTPUT_TOUR_FILE: "baseline_results/cvrp_lkh/Vrp-Set-X-n266/Vrp-Set-X-n266-lkh/0.lkh1.tour" ... done
* 36: Cost = 0_7896833, Time = 1.80 sec. 
Writing OUTPUT_TOUR_FILE: "baseline_results/cvrp_lkh/Vrp-Set-X-n266/Vrp-Set-X-n266-lkh/0.lkh1.tour" ... done
* 40: Cost = 0_7896645, Time = 1.97 sec. 
Writing OUTPUT_TOUR_FILE: "baseline_results/cvrp_lkh/Vrp-Set-X-n266/Vrp-Set-X-n266-lkh/0.lkh1.tour" ... done
* 41: Cost = 0_7876201, Time = 1.98 sec. 
Writing OUTPUT_TOUR_FILE: "baseline_results/cvrp_lkh/Vrp-Set-X-n266/Vrp-Set-X-n266-lkh/0.lkh1.tour" ... done
* 43: Cost = 0_7875928, Time = 2.01 sec. 
Writing OUTPUT_TOUR_FILE: "baseline_results/cvrp_lkh/Vrp-Set-X-n266/Vrp-Set-X-n266-lkh/0.lkh1.tour" ... done
* 52: Cost = 0_7870245, Time = 2.16 sec. 
Writing OUTPUT_TOUR_FILE: "baseline_results/cvrp_lkh/Vrp-Set-X-n266/Vrp-Set-X-n266-lkh/0.lkh1.tour" ... done
* 54: Cost = 0_7869850, Time = 2.19 sec. 
Writing OUTPUT_TOUR_FILE: "baseline_results/cvrp_lkh/Vrp-Set-X-n266/Vrp-Set-X-n266-lkh/0.lkh1.tour" ... done
* 55: Cost = 0_7828745, Time = 2.22 sec. 
Writing OUTPUT_TOUR_FILE: "baseline_results/cvrp_lkh/Vrp-Set-X-n266/Vrp-Set-X-n266-lkh/0.lkh1.tour" ... done
* 62: Cost = 0_7825494, Time = 2.40 sec. 
Writing OUTPUT_TOUR_FILE: "baseline_results/cvrp_lkh/Vrp-Set-X-n266/Vrp-Set-X-n266-lkh/0.lkh1.tour" ... done
* 68: Cost = 0_7824230, Time = 2.56 sec. 
Writing OUTPUT_TOUR_FILE: "baseline_results/cvrp_lkh/Vrp-Set-X-n266/Vrp-Set-X-n266-lkh/0.lkh1.tour" ... done
* 69: Cost = 0_7819098, Time = 2.57 sec. 
Writing OUTPUT_TOUR_FILE: "baseline_results/cvrp_lkh/Vrp-Set-X-n266/Vrp-Set-X-n266-lkh/0.lkh1.tour" ... done
* 70: Cost = 0_7815723, Time = 2.59 sec. 
Writing OUTPUT_TOUR_FILE: "baseline_results/cvrp_lkh/Vrp-Set-X-n266/Vrp-Set-X-n266-lkh/0.lkh1.tour" ... done
* 77: Cost = 0_7811782, Time = 2.71 sec. 
Writing OUTPUT_TOUR_FILE: "baseline_results/cvrp_lkh/Vrp-Set-X-n266/Vrp-Set-X-n266-lkh/0.lkh1.tour" ... done
* 89: Cost = 0_7807538, Time = 3.20 sec. 
Writing OUTPUT_TOUR_FILE: "baseline_results/cvrp_lkh/Vrp-Set-X-n266/Vrp-Set-X-n266-lkh/0.lkh1.tour" ... done
* 106: Cost = 0_7802986, Time = 3.67 sec. 
Writing OUTPUT_TOUR_FILE: "baseline_results/cvrp_lkh/Vrp-Set-X-n266/Vrp-Set-X-n266-lkh/0.lkh1.tour" ... done
* 110: Cost = 0_7793906, Time = 3.74 sec. 
Writing OUTPUT_TOUR_FILE: "baseline_results/cvrp_lkh/Vrp-Set-X-n266/Vrp-Set-X-n266-lkh/0.lkh1.tour" ... done
* 115: Cost = 0_7793021, Time = 3.93 sec. 
Writing OUTPUT_TOUR_FILE: "baseline_results/cvrp_lkh/Vrp-Set-X-n266/Vrp-Set-X-n266-lkh/0.lkh1.tour" ... done
* 125: Cost = 0_7791699, Time = 4.17 sec. 
Writing OUTPUT_TOUR_FILE: "baseline_results/cvrp_lkh/Vrp-Set-X-n266/Vrp-Set-X-n266-lkh/0.lkh1.tour" ... done
* 135: Cost = 0_7789035, Time = 4.52 sec. 
Writing OUTPUT_TOUR_FILE: "baseline_results/cvrp_lkh/Vrp-Set-X-n266/Vrp-Set-X-n266-lkh/0.lkh1.tour" ... done
* 145: Cost = 0_7787139, Time = 4.76 sec. 
Writing OUTPUT_TOUR_FILE: "baseline_results/cvrp_lkh/Vrp-Set-X-n266/Vrp-Set-X-n266-lkh/0.lkh1.tour" ... done
* 151: Cost = 0_7782848, Time = 4.88 sec. 
Writing OUTPUT_TOUR_FILE: "baseline_results/cvrp_lkh/Vrp-Set-X-n266/Vrp-Set-X-n266-lkh/0.lkh1.tour" ... done
* 152: Cost = 0_7763505, Time = 4.90 sec. 
Writing OUTPUT_TOUR_FILE: "baseline_results/cvrp_lkh/Vrp-Set-X-n266/Vrp-Set-X-n266-lkh/0.lkh1.tour" ... done
* 164: Cost = 0_7760468, Time = 5.17 sec. 
Writing OUTPUT_TOUR_FILE: "baseline_results/cvrp_lkh/Vrp-Set-X-n266/Vrp-Set-X-n266-lkh/0.lkh1.tour" ... done
* 165: Cost = 0_7760462, Time = 5.18 sec. 
Writing OUTPUT_TOUR_FILE: "baseline_results/cvrp_lkh/Vrp-Set-X-n266/Vrp-Set-X-n266-lkh/0.lkh1.tour" ... done
* 167: Cost = 0_7756948, Time = 5.28 sec. 
Writing OUTPUT_TOUR_FILE: "baseline_results/cvrp_lkh/Vrp-Set-X-n266/Vrp-Set-X-n266-lkh/0.lkh1.tour" ... done
* 181: Cost = 0_7751311, Time = 5.69 sec. 
Writing OUTPUT_TOUR_FILE: "baseline_results/cvrp_lkh/Vrp-Set-X-n266/Vrp-Set-X-n266-lkh/0.lkh1.tour" ... done
* 187: Cost = 0_7750116, Time = 5.86 sec. 
Writing OUTPUT_TOUR_FILE: "baseline_results/cvrp_lkh/Vrp-Set-X-n266/Vrp-Set-X-n266-lkh/0.lkh1.tour" ... done
* 195: Cost = 0_7745052, Time = 6.18 sec. 
Writing OUTPUT_TOUR_FILE: "baseline_results/cvrp_lkh/Vrp-Set-X-n266/Vrp-Set-X-n266-lkh/0.lkh1.tour" ... done
* 203: Cost = 0_7744947, Time = 6.44 sec. 
Writing OUTPUT_TOUR_FILE: "baseline_results/cvrp_lkh/Vrp-Set-X-n266/Vrp-Set-X-n266-lkh/0.lkh1.tour" ... done
* 236: Cost = 0_7743813, Time = 7.20 sec. 
Writing OUTPUT_TOUR_FILE: "baseline_results/cvrp_lkh/Vrp-Set-X-n266/Vrp-Set-X-n266-lkh/0.lkh1.tour" ... done
* 247: Cost = 0_7742142, Time = 7.51 sec. 
Writing OUTPUT_TOUR_FILE: "baseline_results/cvrp_lkh/Vrp-Set-X-n266/Vrp-Set-X-n266-lkh/0.lkh1.tour" ... done
* 257: Cost = 0_7737995, Time = 7.83 sec. 
Writing OUTPUT_TOUR_FILE: "baseline_results/cvrp_lkh/Vrp-Set-X-n266/Vrp-Set-X-n266-lkh/0.lkh1.tour" ... done
* 263: Cost = 0_7735327, Time = 8.00 sec. 
Writing OUTPUT_TOUR_FILE: "baseline_results/cvrp_lkh/Vrp-Set-X-n266/Vrp-Set-X-n266-lkh/0.lkh1.tour" ... done
* 265: Cost = 0_7731688, Time = 8.02 sec. 
Writing OUTPUT_TOUR_FILE: "baseline_results/cvrp_lkh/Vrp-Set-X-n266/Vrp-Set-X-n266-lkh/0.lkh1.tour" ... done
* 267: Cost = 0_7731582, Time = 8.05 sec. 
Writing OUTPUT_TOUR_FILE: "baseline_results/cvrp_lkh/Vrp-Set-X-n266/Vrp-Set-X-n266-lkh/0.lkh1.tour" ... done
* 271: Cost = 0_7729246, Time = 8.59 sec. 
Writing OUTPUT_TOUR_FILE: "baseline_results/cvrp_lkh/Vrp-Set-X-n266/Vrp-Set-X-n266-lkh/0.lkh1.tour" ... done
* 277: Cost = 0_7728587, Time = 8.82 sec. 
Writing OUTPUT_TOUR_FILE: "baseline_results/cvrp_lkh/Vrp-Set-X-n266/Vrp-Set-X-n266-lkh/0.lkh1.tour" ... done
* 292: Cost = 0_7727523, Time = 9.27 sec. 
Writing OUTPUT_TOUR_FILE: "baseline_results/cvrp_lkh/Vrp-Set-X-n266/Vrp-Set-X-n266-lkh/0.lkh1.tour" ... done
* 317: Cost = 0_7726535, Time = 10.37 sec. 
Writing OUTPUT_TOUR_FILE: "baseline_results/cvrp_lkh/Vrp-Set-X-n266/Vrp-Set-X-n266-lkh/0.lkh1.tour" ... done
* 346: Cost = 0_7724740, Time = 11.62 sec. 
Writing OUTPUT_TOUR_FILE: "baseline_results/cvrp_lkh/Vrp-Set-X-n266/Vrp-Set-X-n266-lkh/0.lkh1.tour" ... done
* 348: Cost = 0_7722634, Time = 11.63 sec. 
Writing OUTPUT_TOUR_FILE: "baseline_results/cvrp_lkh/Vrp-Set-X-n266/Vrp-Set-X-n266-lkh/0.lkh1.tour" ... done
* 378: Cost = 0_7722115, Time = 12.72 sec. 
Writing OUTPUT_TOUR_FILE: "baseline_results/cvrp_lkh/Vrp-Set-X-n266/Vrp-Set-X-n266-lkh/0.lkh1.tour" ... done
* 380: Cost = 0_7719847, Time = 12.77 sec. 
Writing OUTPUT_TOUR_FILE: "baseline_results/cvrp_lkh/Vrp-Set-X-n266/Vrp-Set-X-n266-lkh/0.lkh1.tour" ... done
* 381: Cost = 0_7719328, Time = 12.78 sec. 
Writing OUTPUT_TOUR_FILE: "baseline_results/cvrp_lkh/Vrp-Set-X-n266/Vrp-Set-X-n266-lkh/0.lkh1.tour" ... done
* 400: Cost = 0_7716222, Time = 13.30 sec. 
Writing OUTPUT_TOUR_FILE: "baseline_results/cvrp_lkh/Vrp-Set-X-n266/Vrp-Set-X-n266-lkh/0.lkh1.tour" ... done
* 420: Cost = 0_7715570, Time = 13.89 sec. 
Writing OUTPUT_TOUR_FILE: "baseline_results/cvrp_lkh/Vrp-Set-X-n266/Vrp-Set-X-n266-lkh/0.lkh1.tour" ... done
* 502: Cost = 0_7709977, Time = 16.46 sec. 
Writing OUTPUT_TOUR_FILE: "baseline_results/cvrp_lkh/Vrp-Set-X-n266/Vrp-Set-X-n266-lkh/0.lkh1.tour" ... done
* 508: Cost = 0_7709682, Time = 16.83 sec. 
Writing OUTPUT_TOUR_FILE: "baseline_results/cvrp_lkh/Vrp-Set-X-n266/Vrp-Set-X-n266-lkh/0.lkh1.tour" ... done
* 538: Cost = 0_7709446, Time = 17.66 sec. 
Writing OUTPUT_TOUR_FILE: "baseline_results/cvrp_lkh/Vrp-Set-X-n266/Vrp-Set-X-n266-lkh/0.lkh1.tour" ... done
* 542: Cost = 0_7707051, Time = 17.69 sec. 
Writing OUTPUT_TOUR_FILE: "baseline_results/cvrp_lkh/Vrp-Set-X-n266/Vrp-Set-X-n266-lkh/0.lkh1.tour" ... done
* 569: Cost = 0_7705528, Time = 18.38 sec. 
Writing OUTPUT_TOUR_FILE: "baseline_results/cvrp_lkh/Vrp-Set-X-n266/Vrp-Set-X-n266-lkh/0.lkh1.tour" ... done
* 597: Cost = 0_7704929, Time = 19.28 sec. 
Writing OUTPUT_TOUR_FILE: "baseline_results/cvrp_lkh/Vrp-Set-X-n266/Vrp-Set-X-n266-lkh/0.lkh1.tour" ... done
* 600: Cost = 0_7704922, Time = 19.30 sec. 
Writing OUTPUT_TOUR_FILE: "baseline_results/cvrp_lkh/Vrp-Set-X-n266/Vrp-Set-X-n266-lkh/0.lkh1.tour" ... done
* 602: Cost = 0_7704842, Time = 19.34 sec. 
Writing OUTPUT_TOUR_FILE: "baseline_results/cvrp_lkh/Vrp-Set-X-n266/Vrp-Set-X-n266-lkh/0.lkh1.tour" ... done
* 858: Cost = 0_7704771, Time = 26.54 sec. 
Writing OUTPUT_TOUR_FILE: "baseline_results/cvrp_lkh/Vrp-Set-X-n266/Vrp-Set-X-n266-lkh/0.lkh1.tour" ... done
* 996: Cost = 0_7704547, Time = 30.68 sec. 
Writing OUTPUT_TOUR_FILE: "baseline_results/cvrp_lkh/Vrp-Set-X-n266/Vrp-Set-X-n266-lkh/0.lkh1.tour" ... done
* 1005: Cost = 0_7704080, Time = 30.95 sec. 
Writing OUTPUT_TOUR_FILE: "baseline_results/cvrp_lkh/Vrp-Set-X-n266/Vrp-Set-X-n266-lkh/0.lkh1.tour" ... done
* 1047: Cost = 0_7703801, Time = 32.26 sec. 
Writing OUTPUT_TOUR_FILE: "baseline_results/cvrp_lkh/Vrp-Set-X-n266/Vrp-Set-X-n266-lkh/0.lkh1.tour" ... done
* 1124: Cost = 0_7701656, Time = 35.09 sec. 
Writing OUTPUT_TOUR_FILE: "baseline_results/cvrp_lkh/Vrp-Set-X-n266/Vrp-Set-X-n266-lkh/0.lkh1.tour" ... done
* 1155: Cost = 0_7700847, Time = 35.91 sec. 
Writing OUTPUT_TOUR_FILE: "baseline_results/cvrp_lkh/Vrp-Set-X-n266/Vrp-Set-X-n266-lkh/0.lkh1.tour" ... done
* 1181: Cost = 0_7700568, Time = 36.77 sec. 
Writing OUTPUT_TOUR_FILE: "baseline_results/cvrp_lkh/Vrp-Set-X-n266/Vrp-Set-X-n266-lkh/0.lkh1.tour" ... done
* 1317: Cost = 0_7697754, Time = 41.13 sec. 
Writing OUTPUT_TOUR_FILE: "baseline_results/cvrp_lkh/Vrp-Set-X-n266/Vrp-Set-X-n266-lkh/0.lkh1.tour" ... done
* 1339: Cost = 0_7694445, Time = 41.98 sec. 
Writing OUTPUT_TOUR_FILE: "baseline_results/cvrp_lkh/Vrp-Set-X-n266/Vrp-Set-X-n266-lkh/0.lkh1.tour" ... done
* 1467: Cost = 0_7688576, Time = 46.39 sec. 
Writing OUTPUT_TOUR_FILE: "baseline_results/cvrp_lkh/Vrp-Set-X-n266/Vrp-Set-X-n266-lkh/0.lkh1.tour" ... done
* 1476: Cost = 0_7687544, Time = 46.90 sec. 
Writing OUTPUT_TOUR_FILE: "baseline_results/cvrp_lkh/Vrp-Set-X-n266/Vrp-Set-X-n266-lkh/0.lkh1.tour" ... done
* 1488: Cost = 0_7685202, Time = 47.21 sec. 
Writing OUTPUT_TOUR_FILE: "baseline_results/cvrp_lkh/Vrp-Set-X-n266/Vrp-Set-X-n266-lkh/0.lkh1.tour" ... done
* 1524: Cost = 0_7684554, Time = 48.34 sec. 
Writing OUTPUT_TOUR_FILE: "baseline_results/cvrp_lkh/Vrp-Set-X-n266/Vrp-Set-X-n266-lkh/0.lkh1.tour" ... done
* 1542: Cost = 0_7681561, Time = 48.68 sec. 
Writing OUTPUT_TOUR_FILE: "baseline_results/cvrp_lkh/Vrp-Set-X-n266/Vrp-Set-X-n266-lkh/0.lkh1.tour" ... done
* 1664: Cost = 0_7679532, Time = 53.30 sec. 
Writing OUTPUT_TOUR_FILE: "baseline_results/cvrp_lkh/Vrp-Set-X-n266/Vrp-Set-X-n266-lkh/0.lkh1.tour" ... done
* 1703: Cost = 0_7676011, Time = 54.74 sec. 
Writing OUTPUT_TOUR_FILE: "baseline_results/cvrp_lkh/Vrp-Set-X-n266/Vrp-Set-X-n266-lkh/0.lkh1.tour" ... done
* 1728: Cost = 0_7675100, Time = 55.71 sec. 
Writing OUTPUT_TOUR_FILE: "baseline_results/cvrp_lkh/Vrp-Set-X-n266/Vrp-Set-X-n266-lkh/0.lkh1.tour" ... done
* 1764: Cost = 0_7674336, Time = 57.81 sec. 
Writing OUTPUT_TOUR_FILE: "baseline_results/cvrp_lkh/Vrp-Set-X-n266/Vrp-Set-X-n266-lkh/0.lkh1.tour" ... done
* 1807: Cost = 0_7674276, Time = 59.30 sec. 
Writing OUTPUT_TOUR_FILE: "baseline_results/cvrp_lkh/Vrp-Set-X-n266/Vrp-Set-X-n266-lkh/0.lkh1.tour" ... done
* 2069: Cost = 0_7673039, Time = 68.49 sec. 
Writing OUTPUT_TOUR_FILE: "baseline_results/cvrp_lkh/Vrp-Set-X-n266/Vrp-Set-X-n266-lkh/0.lkh1.tour" ... done
* 2187: Cost = 0_7672851, Time = 72.98 sec. 
Writing OUTPUT_TOUR_FILE: "baseline_results/cvrp_lkh/Vrp-Set-X-n266/Vrp-Set-X-n266-lkh/0.lkh1.tour" ... done
* 2202: Cost = 0_7672696, Time = 73.33 sec. 
Writing OUTPUT_TOUR_FILE: "baseline_results/cvrp_lkh/Vrp-Set-X-n266/Vrp-Set-X-n266-lkh/0.lkh1.tour" ... done
* 2239: Cost = 0_7672595, Time = 74.63 sec. 
Writing OUTPUT_TOUR_FILE: "baseline_results/cvrp_lkh/Vrp-Set-X-n266/Vrp-Set-X-n266-lkh/0.lkh1.tour" ... done
* 2247: Cost = 0_7672279, Time = 75.01 sec. 
Writing OUTPUT_TOUR_FILE: "baseline_results/cvrp_lkh/Vrp-Set-X-n266/Vrp-Set-X-n266-lkh/0.lkh1.tour" ... done
* 2368: Cost = 0_7670973, Time = 78.19 sec. 
Writing OUTPUT_TOUR_FILE: "baseline_results/cvrp_lkh/Vrp-Set-X-n266/Vrp-Set-X-n266-lkh/0.lkh1.tour" ... done
* 2398: Cost = 0_7670650, Time = 79.21 sec. 
Writing OUTPUT_TOUR_FILE: "baseline_results/cvrp_lkh/Vrp-Set-X-n266/Vrp-Set-X-n266-lkh/0.lkh1.tour" ... done
* 2498: Cost = 0_7667155, Time = 82.14 sec. 
Writing OUTPUT_TOUR_FILE: "baseline_results/cvrp_lkh/Vrp-Set-X-n266/Vrp-Set-X-n266-lkh/0.lkh1.tour" ... done
* 2516: Cost = 0_7666164, Time = 82.92 sec. 
Writing OUTPUT_TOUR_FILE: "baseline_results/cvrp_lkh/Vrp-Set-X-n266/Vrp-Set-X-n266-lkh/0.lkh1.tour" ... done
* 2566: Cost = 0_7665627, Time = 84.72 sec. 
Writing OUTPUT_TOUR_FILE: "baseline_results/cvrp_lkh/Vrp-Set-X-n266/Vrp-Set-X-n266-lkh/0.lkh1.tour" ... done
* 2632: Cost = 0_7665189, Time = 86.61 sec. 
Writing OUTPUT_TOUR_FILE: "baseline_results/cvrp_lkh/Vrp-Set-X-n266/Vrp-Set-X-n266-lkh/0.lkh1.tour" ... done
* 2649: Cost = 0_7658479, Time = 87.07 sec. 
Writing OUTPUT_TOUR_FILE: "baseline_results/cvrp_lkh/Vrp-Set-X-n266/Vrp-Set-X-n266-lkh/0.lkh1.tour" ... done
* 2700: Cost = 0_7658302, Time = 88.90 sec. 
Writing OUTPUT_TOUR_FILE: "baseline_results/cvrp_lkh/Vrp-Set-X-n266/Vrp-Set-X-n266-lkh/0.lkh1.tour" ... done
* 2812: Cost = 0_7658174, Time = 92.88 sec. 
Writing OUTPUT_TOUR_FILE: "baseline_results/cvrp_lkh/Vrp-Set-X-n266/Vrp-Set-X-n266-lkh/0.lkh1.tour" ... done
* 2978: Cost = 0_7658065, Time = 99.32 sec. 
Writing OUTPUT_TOUR_FILE: "baseline_results/cvrp_lkh/Vrp-Set-X-n266/Vrp-Set-X-n266-lkh/0.lkh1.tour" ... done
* 3011: Cost = 0_7658039, Time = 100.56 sec. 
Writing OUTPUT_TOUR_FILE: "baseline_results/cvrp_lkh/Vrp-Set-X-n266/Vrp-Set-X-n266-lkh/0.lkh1.tour" ... done
* 3013: Cost = 0_7657240, Time = 100.59 sec. 
Writing OUTPUT_TOUR_FILE: "baseline_results/cvrp_lkh/Vrp-Set-X-n266/Vrp-Set-X-n266-lkh/0.lkh1.tour" ... done
* 3043: Cost = 0_7654799, Time = 101.68 sec. 
Writing OUTPUT_TOUR_FILE: "baseline_results/cvrp_lkh/Vrp-Set-X-n266/Vrp-Set-X-n266-lkh/0.lkh1.tour" ... done
* 3054: Cost = 0_7654255, Time = 102.20 sec. 
Writing OUTPUT_TOUR_FILE: "baseline_results/cvrp_lkh/Vrp-Set-X-n266/Vrp-Set-X-n266-lkh/0.lkh1.tour" ... done
* 3072: Cost = 0_7654026, Time = 102.59 sec. 
Writing OUTPUT_TOUR_FILE: "baseline_results/cvrp_lkh/Vrp-Set-X-n266/Vrp-Set-X-n266-lkh/0.lkh1.tour" ... done
* 3084: Cost = 0_7653570, Time = 102.81 sec. 
Writing OUTPUT_TOUR_FILE: "baseline_results/cvrp_lkh/Vrp-Set-X-n266/Vrp-Set-X-n266-lkh/0.lkh1.tour" ... done
* 3090: Cost = 0_7652939, Time = 102.96 sec. 
Writing OUTPUT_TOUR_FILE: "baseline_results/cvrp_lkh/Vrp-Set-X-n266/Vrp-Set-X-n266-lkh/0.lkh1.tour" ... done
* 3289: Cost = 0_7652849, Time = 110.72 sec. 
Writing OUTPUT_TOUR_FILE: "baseline_results/cvrp_lkh/Vrp-Set-X-n266/Vrp-Set-X-n266-lkh/0.lkh1.tour" ... done
* 3302: Cost = 0_7650677, Time = 111.33 sec. 
Writing OUTPUT_TOUR_FILE: "baseline_results/cvrp_lkh/Vrp-Set-X-n266/Vrp-Set-X-n266-lkh/0.lkh1.tour" ... done
* 3306: Cost = 0_7649878, Time = 111.38 sec. 
Writing OUTPUT_TOUR_FILE: "baseline_results/cvrp_lkh/Vrp-Set-X-n266/Vrp-Set-X-n266-lkh/0.lkh1.tour" ... done
* 3370: Cost = 0_7649642, Time = 113.09 sec. 
Writing OUTPUT_TOUR_FILE: "baseline_results/cvrp_lkh/Vrp-Set-X-n266/Vrp-Set-X-n266-lkh/0.lkh1.tour" ... done
* 3386: Cost = 0_7647018, Time = 113.66 sec. 
Writing OUTPUT_TOUR_FILE: "baseline_results/cvrp_lkh/Vrp-Set-X-n266/Vrp-Set-X-n266-lkh/0.lkh1.tour" ... done
* 3450: Cost = 0_7646994, Time = 115.93 sec. 
Writing OUTPUT_TOUR_FILE: "baseline_results/cvrp_lkh/Vrp-Set-X-n266/Vrp-Set-X-n266-lkh/0.lkh1.tour" ... done
* 3464: Cost = 0_7646538, Time = 116.42 sec. 
Writing OUTPUT_TOUR_FILE: "baseline_results/cvrp_lkh/Vrp-Set-X-n266/Vrp-Set-X-n266-lkh/0.lkh1.tour" ... done
* 3465: Cost = 0_7644791, Time = 116.43 sec. 
Writing OUTPUT_TOUR_FILE: "baseline_results/cvrp_lkh/Vrp-Set-X-n266/Vrp-Set-X-n266-lkh/0.lkh1.tour" ... done
* 3467: Cost = 0_7644687, Time = 116.51 sec. 
Writing OUTPUT_TOUR_FILE: "baseline_results/cvrp_lkh/Vrp-Set-X-n266/Vrp-Set-X-n266-lkh/0.lkh1.tour" ... done
* 3468: Cost = 0_7637456, Time = 116.52 sec. 
Writing OUTPUT_TOUR_FILE: "baseline_results/cvrp_lkh/Vrp-Set-X-n266/Vrp-Set-X-n266-lkh/0.lkh1.tour" ... done
* 3841: Cost = 0_7636511, Time = 130.25 sec. 
Writing OUTPUT_TOUR_FILE: "baseline_results/cvrp_lkh/Vrp-Set-X-n266/Vrp-Set-X-n266-lkh/0.lkh1.tour" ... done
* 3859: Cost = 0_7632675, Time = 130.93 sec. 
Writing OUTPUT_TOUR_FILE: "baseline_results/cvrp_lkh/Vrp-Set-X-n266/Vrp-Set-X-n266-lkh/0.lkh1.tour" ... done
* 3948: Cost = 0_7629175, Time = 134.55 sec. 
Writing OUTPUT_TOUR_FILE: "baseline_results/cvrp_lkh/Vrp-Set-X-n266/Vrp-Set-X-n266-lkh/0.lkh1.tour" ... done
* 4014: Cost = 0_7627796, Time = 137.42 sec. 
Writing OUTPUT_TOUR_FILE: "baseline_results/cvrp_lkh/Vrp-Set-X-n266/Vrp-Set-X-n266-lkh/0.lkh1.tour" ... done
* 4103: Cost = 0_7624967, Time = 140.71 sec. 
Writing OUTPUT_TOUR_FILE: "baseline_results/cvrp_lkh/Vrp-Set-X-n266/Vrp-Set-X-n266-lkh/0.lkh1.tour" ... done
* 4109: Cost = 0_7621336, Time = 140.83 sec. 
Writing OUTPUT_TOUR_FILE: "baseline_results/cvrp_lkh/Vrp-Set-X-n266/Vrp-Set-X-n266-lkh/0.lkh1.tour" ... done
* 4289: Cost = 0_7620916, Time = 146.51 sec. 
Writing OUTPUT_TOUR_FILE: "baseline_results/cvrp_lkh/Vrp-Set-X-n266/Vrp-Set-X-n266-lkh/0.lkh1.tour" ... done
* 4787: Cost = 0_7620857, Time = 162.71 sec. 
Writing OUTPUT_TOUR_FILE: "baseline_results/cvrp_lkh/Vrp-Set-X-n266/Vrp-Set-X-n266-lkh/0.lkh1.tour" ... done
* 4935: Cost = 0_7620771, Time = 167.56 sec. 
Writing OUTPUT_TOUR_FILE: "baseline_results/cvrp_lkh/Vrp-Set-X-n266/Vrp-Set-X-n266-lkh/0.lkh1.tour" ... done
Population:
  1: 0_7620771
Run 1: Cost = 0_7620771, Time = 369.63 sec. 

Successes/Runs = 0/1 
Cost.min = 7620771, Cost.avg = 7620771.00, Cost.max = 7620771
Gap.min = 0.0000%, Gap.avg = 0.0000%, Gap.max = 0.0000%
Penalty.min = 0, Penalty.avg = 0.00, Penalty.max = 0
Trials.min = 10000, Trials.avg = 10000.0, Trials.max = 10000
Time.min = 369.63 sec., Time.avg = 369.63 sec., Time.max = 369.63 sec.
Time.total = 369.74 sec.
  Size.min = 4, Size.max = 6, Penalty = 0
  Cost.min = 22568, Cost.max = 260763, Cost.sum = 7620771
Best CVRP solution:
  Cost = 0_7620771

