experiment/data/lkh-res/Vrp-Set-X-n266/Vrp-Set-X-n266-lkh/0.lkh1.tour
NAME : 0.7620771.tour
COMMENT : Length = 7620771
COMMENT : Found by LKH-3 [Keld Helsgaun] Tue Apr  9 05:03:44 2024
TYPE : TOUR
DIMENSION : 323
TOUR_SECTION
1
134
160
183
241
283
163
58
153
259
22
275
78
97
122
127
318
230
68
249
114
227
288
178
15
96
87
258
295
240
135
218
231
85
287
188
100
253
200
80
311
109
168
6
41
286
113
111
70
162
174
308
181
44
266
98
285
228
26
150
69
274
254
246
64
189
299
256
128
204
197
290
116
50
83
71
125
272
229
217
170
211
245
278
34
77
32
244
321
250
52
90
190
300
91
107
66
45
60
270
106
185
35
176
304
51
62
94
81
312
139
61
248
131
119
277
207
264
30
110
234
294
161
201
137
208
16
301
220
235
14
142
198
276
180
75
129
226
282
173
151
260
179
233
297
55
141
177
193
219
316
213
133
152
43
289
157
215
257
252
281
140
28
82
263
186
284
222
76
57
102
93
315
156
206
13
191
243
306
187
144
63
194
172
313
164
154
124
147
95
323
237
166
89
203
267
136
146
223
261
143
309
115
232
242
236
268
12
10
38
9
108
273
19
59
92
225
319
17
42
103
167
310
24
39
112
8
307
126
54
158
159
212
302
195
148
105
247
298
11
21
149
138
291
86
101
18
2
72
279
79
84
73
130
292
37
132
49
5
221
320
27
120
118
3
56
47
305
182
175
205
184
322
192
74
210
155
303
25
20
88
23
214
269
196
199
145
262
224
271
104
238
48
171
280
46
121
123
36
209
293
117
4
7
65
53
314
31
33
29
40
296
255
165
239
67
99
317
216
169
265
202
251
-1
EOF
